10 33 6 22 60 10 1
0 677908 6150220 677908 6150220 0
1 584312 6139397 716808 6188569 4
2 512477 6185783 723223 6178173 4
3 565881 6236184 725316 6178516 11
4 557661 6192874 720602 6181329 5
5 500078 6269745 722909 6178310 13
6 553772 6190983 704983 6218631 12
7 601201 6102741 650211 6143651 14
8 586652 6137667 675739 6064452 13
9 480363 6178063 719286 6174665 12
10 558174 6369831 727591 6173459 14



